NAME: random-90-1025
TYPE: TSP
COMMENT: size=90 seed=1025
DIMENSION: 182
EDGE_WEIGHT_TYPE: EUC_2D
NODE_COORD_SECTION
+0 175 527
-0 175 527
+1 988 872
-1 544 285
+2 763 899
-2 729 921
+3 703 405
-3 737 901
+4 686 696
-4 729 304
+5 306 384
-5 584 334
+6 51 945
-6 657 460
+7 778 829
-7 774 343
+8 757 619
-8 412 433
+9 219 300
-9 770 547
+10 484 271
-10 45 916
+11 576 747
-11 91 93
+12 337 716
-12 130 442
+13 479 793
-13 604 260
+14 894 660
-14 893 461
+15 281 151
-15 462 31
+16 908 943
-16 441 29
+17 463 800
-17 539 254
+18 127 733
-18 951 378
+19 867 403
-19 965 242
+20 219 534
-20 373 390
+21 742 560
-21 787 379
+22 747 680
-22 67 564
+23 352 728
-23 365 201
+24 866 711
-24 378 625
+25 675 512
-25 557 946
+26 846 455
-26 591 574
+27 441 630
-27 812 173
+28 129 664
-28 795 89
+29 89 929
-29 596 249
+30 329 118
-30 909 872
+31 406 831
-31 58 735
+32 455 775
-32 427 929
+33 412 694
-33 610 666
+34 111 103
-34 928 223
+35 962 362
-35 660 728
+36 871 304
-36 185 362
+37 449 650
-37 975 155
+38 912 987
-38 781 260
+39 762 451
-39 486 669
+40 737 914
-40 172 674
+41 187 522
-41 761 285
+42 913 610
-42 952 21
+43 257 48
-43 516 772
+44 177 689
-44 681 173
+45 999 864
-45 437 237
+46 626 285
-46 88 768
+47 943 846
-47 99 54
+48 470 689
-48 847 319
+49 225 19
-49 825 85
+50 318 182
-50 333 134
+51 116 863
-51 925 856
+52 143 597
-52 448 669
+53 828 941
-53 720 24
+54 660 997
-54 305 332
+55 899 614
-55 197 698
+56 218 828
-56 302 22
+57 912 992
-57 911 936
+58 971 726
-58 608 667
+59 835 696
-59 844 256
+60 759 225
-60 462 228
+61 97 798
-61 372 121
+62 263 18
-62 100 950
+63 776 910
-63 706 309
+64 822 316
-64 405 871
+65 753 72
-65 113 799
+66 624 260
-66 657 454
+67 724 119
-67 100 888
+68 847 475
-68 377 648
+69 188 59
-69 599 767
+70 294 183
-70 38 396
+71 850 45
-71 767 649
+72 898 368
-72 922 58
+73 61 914
-73 542 887
+74 397 500
-74 314 742
+75 14 763
-75 908 247
+76 121 489
-76 146 203
+77 501 810
-77 568 592
+78 76 906
-78 411 810
+79 463 20
-79 391 343
+80 524 635
-80 546 794
+81 714 23
-81 79 431
+82 218 373
-82 270 612
+83 831 274
-83 861 141
+84 308 240
-84 309 455
+85 864 879
-85 553 988
+86 189 654
-86 616 89
+87 12 688
-87 915 831
+88 908 860
-88 733 812
+89 83 881
-89 140 230
+90 772 845
-90 118 702
PRECEDENCE_SECTION
+0 -0
+1 -1
+2 -2
+3 -3
+4 -4
+5 -5
+6 -6
+7 -7
+8 -8
+9 -9
+10 -10
+11 -11
+12 -12
+13 -13
+14 -14
+15 -15
+16 -16
+17 -17
+18 -18
+19 -19
+20 -20
+21 -21
+22 -22
+23 -23
+24 -24
+25 -25
+26 -26
+27 -27
+28 -28
+29 -29
+30 -30
+31 -31
+32 -32
+33 -33
+34 -34
+35 -35
+36 -36
+37 -37
+38 -38
+39 -39
+40 -40
+41 -41
+42 -42
+43 -43
+44 -44
+45 -45
+46 -46
+47 -47
+48 -48
+49 -49
+50 -50
+51 -51
+52 -52
+53 -53
+54 -54
+55 -55
+56 -56
+57 -57
+58 -58
+59 -59
+60 -60
+61 -61
+62 -62
+63 -63
+64 -64
+65 -65
+66 -66
+67 -67
+68 -68
+69 -69
+70 -70
+71 -71
+72 -72
+73 -73
+74 -74
+75 -75
+76 -76
+77 -77
+78 -78
+79 -79
+80 -80
+81 -81
+82 -82
+83 -83
+84 -84
+85 -85
+86 -86
+87 -87
+88 -88
+89 -89
+90 -90
EOF
